p cnf 520 1236
a 436 321 325 328 333 336 229 341 460 258 348 351 356 359 363 366 373 376 380 383 388 391 395 398 404 407 411 414 419 508 425 428 7 13 24 30 2 1 40 18 6 12 35 23 29 50 45 60 55 70 65 80 75 85 90 95 105 100 110 115 120 130 125 135 140 145 163 158 150 154 180 175 167 171 184 193 188 203 198 212 208 217 223 228 234 238 253 248 243 257 268 263 272 276 281 290 286 295 300 305 310 315 0
d 320 436 163 180 2 0
d 340 228 234 13 7 0
d 218 24 30 0
d 422 2 508 0
d 347 253 257 268 272 460 0
d 3 2 0
d 4 1 2 0
d 5 1 2 0
d 8 7 0
d 9 6 7 0
d 10 6 7 0
d 11 1 2 6 7 0
d 14 13 0
d 15 12 13 0
d 16 12 13 0
d 17 1 2 6 7 12 13 0
d 19 6 12 0
d 20 18 6 12 0
d 21 18 6 12 0
d 22 1 2 6 7 12 13 18 0
d 25 24 0
d 26 23 24 0
d 27 23 24 0
d 28 1 2 6 7 12 13 18 23 24 0
d 31 30 0
d 32 29 30 0
d 33 29 30 0
d 34 1 2 6 7 12 13 18 23 24 29 30 0
d 36 23 29 0
d 37 35 23 29 0
d 38 35 23 29 0
d 39 1 2 6 7 12 13 18 23 24 29 30 35 0
d 41 18 35 0
d 42 40 18 35 0
d 43 40 18 35 0
d 44 1 2 6 7 12 13 18 23 24 29 30 35 40 0
d 46 7 12 0
d 47 45 7 12 0
d 48 45 7 12 0
d 49 1 2 6 7 12 13 18 23 24 29 30 35 40 45 0
d 51 45 35 0
d 52 50 45 35 0
d 53 50 45 35 0
d 54 1 2 6 7 12 13 18 23 24 29 30 35 40 45 50 0
d 56 6 13 0
d 57 55 6 13 0
d 58 55 6 13 0
d 59 1 2 6 7 12 13 18 23 24 29 30 35 40 45 50 55 0
d 61 55 35 0
d 62 60 55 35 0
d 63 60 55 35 0
d 64 1 2 6 7 12 13 18 23 24 29 30 35 40 45 50 55 60 0
d 66 7 13 0
d 67 65 7 13 0
d 68 65 7 13 0
d 69 1 2 6 7 12 13 18 23 24 29 30 35 40 45 50 55 60 65 0
d 71 65 35 0
d 72 70 65 35 0
d 73 70 65 35 0
d 74 1 2 6 7 12 13 18 23 24 29 30 35 40 45 50 55 60 65 70 0
d 76 24 29 0
d 77 75 24 29 0
d 78 75 24 29 0
d 79 1 2 6 7 12 13 18 23 24 29 30 35 40 45 50 55 60 65 70 75 0
d 81 18 75 0
d 82 80 18 75 0
d 83 80 18 75 0
d 84 1 2 6 7 12 13 18 23 24 29 30 35 40 45 50 55 60 65 70 75 80 0
d 86 45 75 0
d 87 85 45 75 0
d 88 85 45 75 0
d 89 1 2 6 7 12 13 18 23 24 29 30 35 40 45 50 55 60 65 70 75 80 85 0
d 91 55 75 0
d 92 90 55 75 0
d 93 90 55 75 0
d 94 1 2 6 7 12 13 18 23 24 29 30 35 40 45 50 55 60 65 70 75 80 85 90 0
d 96 65 75 0
d 97 95 65 75 0
d 98 95 65 75 0
d 99 1 2 6 7 12 13 18 23 24 29 30 35 40 45 50 55 60 65 70 75 80 85 90 95 0
d 101 23 30 0
d 102 100 23 30 0
d 103 100 23 30 0
d 104 1 2 6 7 12 13 18 23 24 29 30 35 40 45 50 55 60 65 70 75 80 85 90 95 100 0
d 106 18 100 0
d 107 105 18 100 0
d 108 105 18 100 0
d 109 1 2 6 7 12 13 18 23 24 29 30 35 40 45 50 55 60 65 70 75 80 85 90 95 100 105 0
d 111 45 100 0
d 112 110 45 100 0
d 113 110 45 100 0
d 114 1 2 6 7 12 13 18 23 24 29 30 35 40 45 50 55 60 65 70 75 80 85 90 95 100 105 110 0
d 116 55 100 0
d 117 115 55 100 0
d 118 115 55 100 0
d 119 1 2 6 7 12 13 18 23 24 29 30 35 40 45 50 55 60 65 70 75 80 85 90 95 100 105 110 115 0
d 121 65 100 0
d 122 120 65 100 0
d 123 120 65 100 0
d 124 1 2 6 7 12 13 18 23 24 29 30 35 40 45 50 55 60 65 70 75 80 85 90 95 100 105 110 115 120 0
d 126 24 30 0
d 127 125 24 30 0
d 128 125 24 30 0
d 129 1 2 6 7 12 13 18 23 24 29 30 35 40 45 50 55 60 65 70 75 80 85 90 95 100 105 110 115 120 125 0
d 131 18 125 0
d 132 130 18 125 0
d 133 130 18 125 0
d 134 1 2 6 7 12 13 18 23 24 29 30 35 40 45 50 55 60 65 70 75 80 85 90 95 100 105 110 115 120 125 130 0
d 136 45 125 0
d 137 135 45 125 0
d 138 135 45 125 0
d 139 1 2 6 7 12 13 18 23 24 29 30 35 40 45 50 55 60 65 70 75 80 85 90 95 100 105 110 115 120 125 130 135 0
d 141 55 125 0
d 142 140 55 125 0
d 143 140 55 125 0
d 144 1 2 6 7 12 13 18 23 24 29 30 35 40 45 50 55 60 65 70 75 80 85 90 95 100 105 110 115 120 125 130 135 140 0
d 146 65 125 0
d 147 145 65 125 0
d 148 145 65 125 0
d 149 1 2 6 7 12 13 18 23 24 29 30 35 40 45 50 55 60 65 70 75 80 85 90 95 100 105 110 115 120 125 130 135 140 145 0
d 151 150 7 0
d 152 150 7 0
d 153 1 2 6 7 12 13 18 23 24 29 30 35 40 45 50 55 60 65 70 75 80 85 90 95 100 105 110 115 120 125 130 135 140 145 150 0
d 155 154 13 0
d 156 154 13 0
d 157 1 2 6 7 12 13 18 23 24 29 30 35 40 45 50 55 60 65 70 75 80 85 90 95 100 105 110 115 120 125 130 135 140 145 150 154 0
d 159 150 154 0
d 160 158 150 154 0
d 161 158 150 154 0
d 162 1 2 6 7 12 13 18 23 24 29 30 35 40 45 50 55 60 65 70 75 80 85 90 95 100 105 110 115 120 125 130 135 140 145 150 154 158 0
d 164 163 158 0
d 165 163 158 0
d 166 1 2 6 7 12 13 18 23 24 29 30 35 40 45 50 55 60 65 70 75 80 85 90 95 100 105 110 115 120 125 130 135 140 145 150 154 158 163 0
d 168 167 24 0
d 169 167 24 0
d 170 1 2 6 7 12 13 18 23 24 29 30 35 40 45 50 55 60 65 70 75 80 85 90 95 100 105 110 115 120 125 130 135 140 145 150 154 158 163 167 0
d 172 171 30 0
d 173 171 30 0
d 174 1 2 6 7 12 13 18 23 24 29 30 35 40 45 50 55 60 65 70 75 80 85 90 95 100 105 110 115 120 125 130 135 140 145 150 154 158 163 167 171 0
d 176 167 171 0
d 177 175 167 171 0
d 178 175 167 171 0
d 179 1 2 6 7 12 13 18 23 24 29 30 35 40 45 50 55 60 65 70 75 80 85 90 95 100 105 110 115 120 125 130 135 140 145 150 154 158 163 167 171 175 0
d 181 180 175 0
d 182 180 175 0
d 183 1 2 6 7 12 13 18 23 24 29 30 35 40 45 50 55 60 65 70 75 80 85 90 95 100 105 110 115 120 125 130 135 140 145 150 154 158 163 167 171 175 180 0
d 185 184 2 0
d 186 184 2 0
d 187 1 2 6 7 12 13 18 23 24 29 30 35 40 45 50 55 60 65 70 75 80 85 90 95 100 105 110 115 120 125 130 135 140 145 150 154 158 163 167 171 175 180 184 0
d 189 7 154 0
d 190 188 7 154 0
d 191 188 7 154 0
d 192 1 2 6 7 12 13 18 23 24 29 30 35 40 45 50 55 60 65 70 75 80 85 90 95 100 105 110 115 120 125 130 135 140 145 150 154 158 163 167 171 175 180 184 188 0
d 194 188 175 0
d 195 193 188 175 0
d 196 193 188 175 0
d 197 1 2 6 7 12 13 18 23 24 29 30 35 40 45 50 55 60 65 70 75 80 85 90 95 100 105 110 115 120 125 130 135 140 145 150 154 158 163 167 171 175 180 184 188 193 0
d 199 150 13 0
d 200 198 150 13 0
d 201 198 150 13 0
d 202 1 2 6 7 12 13 18 23 24 29 30 35 40 45 50 55 60 65 70 75 80 85 90 95 100 105 110 115 120 125 130 135 140 145 150 154 158 163 167 171 175 180 184 188 193 198 0
d 204 198 175 0
d 205 203 198 175 0
d 206 203 198 175 0
d 207 1 2 6 7 12 13 18 23 24 29 30 35 40 45 50 55 60 65 70 75 80 85 90 95 100 105 110 115 120 125 130 135 140 145 150 154 158 163 167 171 175 180 184 188 193 198 203 0
d 209 208 7 13 0
d 210 208 7 13 0
d 211 1 2 6 7 12 13 18 23 24 29 30 35 40 45 50 55 60 65 70 75 80 85 90 95 100 105 110 115 120 125 130 135 140 145 150 154 158 163 167 171 175 180 184 188 193 198 203 208 0
d 213 208 175 0
d 214 212 208 175 0
d 215 212 208 175 0
d 216 1 2 6 7 12 13 18 23 24 29 30 35 40 45 50 55 60 65 70 75 80 85 90 95 100 105 110 115 120 125 130 135 140 145 150 154 158 163 167 171 175 180 184 188 193 198 203 208 212 0
d 219 158 24 30 0
d 220 217 158 24 30 0
d 221 217 158 24 30 0
d 222 1 2 6 7 12 13 18 23 24 29 30 35 40 45 50 55 60 65 70 75 80 85 90 95 100 105 110 115 120 125 130 135 140 145 150 154 158 163 167 171 175 180 184 188 193 198 203 208 212 217 0
d 224 188 24 30 0
d 225 223 188 24 30 0
d 226 223 188 24 30 0
d 227 1 2 6 7 12 13 18 23 24 29 30 35 40 45 50 55 60 65 70 75 80 85 90 95 100 105 110 115 120 125 130 135 140 145 150 154 158 163 167 171 175 180 184 188 193 198 203 208 212 217 223 0
d 230 184 229 0
d 231 228 184 229 0
d 232 228 184 229 0
d 233 1 2 6 7 12 13 18 23 24 29 30 35 40 45 50 55 60 65 70 75 80 85 90 95 100 105 110 115 120 125 130 135 140 145 150 154 158 163 167 171 175 180 184 188 193 198 203 208 212 217 223 228 229 0
d 235 234 24 30 0
d 236 234 24 30 0
d 237 1 2 6 7 12 13 18 23 24 29 30 35 40 45 50 55 60 65 70 75 80 85 90 95 100 105 110 115 120 125 130 135 140 145 150 154 158 163 167 171 175 180 184 188 193 198 203 208 212 217 223 228 229 234 0
d 239 208 24 30 0
d 240 238 208 24 30 0
d 241 238 208 24 30 0
d 242 1 2 6 7 12 13 18 23 24 29 30 35 40 45 50 55 60 65 70 75 80 85 90 95 100 105 110 115 120 125 130 135 140 145 150 154 158 163 167 171 175 180 184 188 193 198 203 208 212 217 223 228 229 234 238 0
d 244 167 30 0
d 245 243 167 30 0
d 246 243 167 30 0
d 247 1 2 6 7 12 13 18 23 24 29 30 35 40 45 50 55 60 65 70 75 80 85 90 95 100 105 110 115 120 125 130 135 140 145 150 154 158 163 167 171 175 180 184 188 193 198 203 208 212 217 223 228 229 234 238 243 0
d 249 158 243 0
d 250 248 158 243 0
d 251 248 158 243 0
d 252 1 2 6 7 12 13 18 23 24 29 30 35 40 45 50 55 60 65 70 75 80 85 90 95 100 105 110 115 120 125 130 135 140 145 150 154 158 163 167 171 175 180 184 188 193 198 203 208 212 217 223 228 229 234 238 243 248 0
d 254 253 248 0
d 255 253 248 0
d 256 1 2 6 7 12 13 18 23 24 29 30 35 40 45 50 55 60 65 70 75 80 85 90 95 100 105 110 115 120 125 130 135 140 145 150 154 158 163 167 171 175 180 184 188 193 198 203 208 212 217 223 228 229 234 238 243 248 253 0
d 259 184 258 0
d 260 257 184 258 0
d 261 257 184 258 0
d 262 1 2 6 7 12 13 18 23 24 29 30 35 40 45 50 55 60 65 70 75 80 85 90 95 100 105 110 115 120 125 130 135 140 145 150 154 158 163 167 171 175 180 184 188 193 198 203 208 212 217 223 228 229 234 238 243 248 253 257 258 0
d 264 188 243 0
d 265 263 188 243 0
d 266 263 188 243 0
d 267 1 2 6 7 12 13 18 23 24 29 30 35 40 45 50 55 60 65 70 75 80 85 90 95 100 105 110 115 120 125 130 135 140 145 150 154 158 163 167 171 175 180 184 188 193 198 203 208 212 217 223 228 229 234 238 243 248 253 257 258 263 0
d 269 268 263 0
d 270 268 263 0
d 271 1 2 6 7 12 13 18 23 24 29 30 35 40 45 50 55 60 65 70 75 80 85 90 95 100 105 110 115 120 125 130 135 140 145 150 154 158 163 167 171 175 180 184 188 193 198 203 208 212 217 223 228 229 234 238 243 248 253 257 258 263 268 0
d 273 272 184 0
d 274 272 184 0
d 275 1 2 6 7 12 13 18 23 24 29 30 35 40 45 50 55 60 65 70 75 80 85 90 95 100 105 110 115 120 125 130 135 140 145 150 154 158 163 167 171 175 180 184 188 193 198 203 208 212 217 223 228 229 234 238 243 248 253 257 258 263 268 272 0
d 277 198 243 0
d 278 276 198 243 0
d 279 276 198 243 0
d 280 1 2 6 7 12 13 18 23 24 29 30 35 40 45 50 55 60 65 70 75 80 85 90 95 100 105 110 115 120 125 130 135 140 145 150 154 158 163 167 171 175 180 184 188 193 198 203 208 212 217 223 228 229 234 238 243 248 253 257 258 263 268 272 276 0
d 282 208 243 0
d 283 281 208 243 0
d 284 281 208 243 0
d 285 1 2 6 7 12 13 18 23 24 29 30 35 40 45 50 55 60 65 70 75 80 85 90 95 100 105 110 115 120 125 130 135 140 145 150 154 158 163 167 171 175 180 184 188 193 198 203 208 212 217 223 228 229 234 238 243 248 253 257 258 263 268 272 276 281 0
d 287 286 24 30 0
d 288 286 24 30 0
d 289 1 2 6 7 12 13 18 23 24 29 30 35 40 45 50 55 60 65 70 75 80 85 90 95 100 105 110 115 120 125 130 135 140 145 150 154 158 163 167 171 175 180 184 188 193 198 203 208 212 217 223 228 229 234 238 243 248 253 257 258 263 268 272 276 281 286 0
d 291 158 286 0
d 292 290 158 286 0
d 293 290 158 286 0
d 294 1 2 6 7 12 13 18 23 24 29 30 35 40 45 50 55 60 65 70 75 80 85 90 95 100 105 110 115 120 125 130 135 140 145 150 154 158 163 167 171 175 180 184 188 193 198 203 208 212 217 223 228 229 234 238 243 248 253 257 258 263 268 272 276 281 286 290 0
d 296 188 286 0
d 297 295 188 286 0
d 298 295 188 286 0
d 299 1 2 6 7 12 13 18 23 24 29 30 35 40 45 50 55 60 65 70 75 80 85 90 95 100 105 110 115 120 125 130 135 140 145 150 154 158 163 167 171 175 180 184 188 193 198 203 208 212 217 223 228 229 234 238 243 248 253 257 258 263 268 272 276 281 286 290 295 0
d 301 198 286 0
d 302 300 198 286 0
d 303 300 198 286 0
d 304 1 2 6 7 12 13 18 23 24 29 30 35 40 45 50 55 60 65 70 75 80 85 90 95 100 105 110 115 120 125 130 135 140 145 150 154 158 163 167 171 175 180 184 188 193 198 203 208 212 217 223 228 229 234 238 243 248 253 257 258 263 268 272 276 281 286 290 295 300 0
d 306 208 286 0
d 307 305 208 286 0
d 308 305 208 286 0
d 309 1 2 6 7 12 13 18 23 24 29 30 35 40 45 50 55 60 65 70 75 80 85 90 95 100 105 110 115 120 125 130 135 140 145 150 154 158 163 167 171 175 180 184 188 193 198 203 208 212 217 223 228 229 234 238 243 248 253 257 258 263 268 272 276 281 286 290 295 300 305 0
d 311 158 175 0
d 312 310 158 175 0
d 313 310 158 175 0
d 314 1 2 6 7 12 13 18 23 24 29 30 35 40 45 50 55 60 65 70 75 80 85 90 95 100 105 110 115 120 125 130 135 140 145 150 154 158 163 167 171 175 180 184 188 193 198 203 208 212 217 223 228 229 234 238 243 248 253 257 258 263 268 272 276 281 286 290 295 300 305 310 0
d 316 198 24 30 0
d 317 315 198 24 30 0
d 318 315 198 24 30 0
d 319 1 2 6 7 12 13 18 23 24 29 30 35 40 45 50 55 60 65 70 75 80 85 90 95 100 105 110 115 120 125 130 135 140 145 150 154 158 163 167 171 175 180 184 188 193 198 203 208 212 217 223 228 229 234 238 243 248 253 257 258 263 268 272 276 281 286 290 295 300 305 310 315 0
d 322 184 321 0
d 323 184 321 193 0
d 324 436 163 180 2 184 321 193 0
d 326 184 325 0
d 327 184 325 203 0
d 329 184 328 0
d 330 184 328 212 0
d 331 184 325 203 328 212 0
d 332 436 163 180 2 184 321 193 325 203 328 212 0
d 334 184 333 0
d 335 184 333 217 0
d 337 184 336 0
d 338 184 336 223 0
d 339 184 333 217 336 223 0
d 342 184 341 0
d 343 184 341 238 0
d 344 228 234 13 7 184 341 238 0
d 345 184 333 217 336 223 228 234 13 7 341 238 0
d 346 436 163 180 2 184 321 193 325 203 328 212 333 217 336 223 228 234 13 7 341 238 0
d 349 184 348 0
d 350 184 348 276 0
d 352 184 351 0
d 353 184 351 281 0
d 354 184 348 276 351 281 0
d 355 253 257 268 272 460 184 348 276 351 281 0
d 357 184 356 0
d 358 184 356 290 0
d 360 184 359 0
d 361 184 359 295 0
d 362 184 356 290 359 295 0
d 364 184 363 0
d 365 184 363 300 0
d 367 184 366 0
d 368 184 366 305 0
d 369 184 363 300 366 305 0
d 370 184 356 290 359 295 363 300 366 305 0
d 371 253 257 268 272 460 184 348 276 351 281 356 290 359 295 363 300 366 305 0
d 372 436 163 180 2 184 321 193 325 203 328 212 333 217 336 223 228 234 13 7 341 238 253 257 268 272 460 348 276 351 281 356 290 359 295 363 300 366 305 0
d 374 2 373 0
d 375 2 373 310 0
d 377 2 376 0
d 378 2 376 193 0
d 379 2 373 310 376 193 0
d 381 2 380 0
d 382 2 380 203 0
d 384 2 383 0
d 385 2 383 212 0
d 386 2 380 203 383 212 0
d 387 2 373 310 376 193 380 203 383 212 0
d 389 2 388 0
d 390 2 388 217 0
d 392 2 391 0
d 393 2 391 223 0
d 394 2 388 217 391 223 0
d 396 2 395 0
d 397 2 395 315 0
d 399 2 398 0
d 400 2 398 238 0
d 401 2 395 315 398 238 0
d 402 2 388 217 391 223 395 315 398 238 0
d 403 2 373 310 376 193 380 203 383 212 388 217 391 223 395 315 398 238 0
d 405 2 404 0
d 406 2 404 248 0
d 408 2 407 0
d 409 2 407 263 0
d 410 2 404 248 407 263 0
d 412 2 411 0
d 413 2 411 276 0
d 415 2 414 0
d 416 2 414 281 0
d 417 2 411 276 414 281 0
d 418 2 404 248 407 263 411 276 414 281 0
d 420 2 419 0
d 421 2 419 290 0
d 423 2 508 295 0
d 424 2 419 290 508 295 0
d 426 2 425 0
d 427 2 425 300 0
d 429 2 428 0
d 430 2 428 305 0
d 431 2 425 300 428 305 0
d 432 2 419 290 508 295 425 300 428 305 0
d 433 2 404 248 407 263 411 276 414 281 419 290 508 295 425 300 428 305 0
d 434 2 373 310 376 193 380 203 383 212 388 217 391 223 395 315 398 238 404 248 407 263 411 276 414 281 419 290 508 295 425 300 428 305 0
d 435 436 163 180 2 184 321 193 325 203 328 212 333 217 336 223 228 234 13 7 341 238 253 257 268 272 460 348 276 351 281 356 290 359 295 363 300 366 305 373 310 376 380 383 388 391 395 315 398 404 248 407 263 411 414 419 508 425 428 0
d 437 1 436 0
d 438 1 436 40 0
d 439 1 321 0
d 440 1 321 50 0
d 441 1 436 40 321 50 0
d 442 1 325 0
d 443 1 325 60 0
d 444 1 328 0
d 445 1 328 70 0
d 446 1 325 60 328 70 0
d 447 1 436 40 321 50 325 60 328 70 0
d 448 1 333 0
d 449 1 333 80 0
d 450 1 336 0
d 451 1 336 85 0
d 452 1 333 80 336 85 0
d 453 1 229 0
d 454 1 229 90 0
d 455 1 341 0
d 456 1 341 95 0
d 457 1 229 90 341 95 0
d 458 1 333 80 336 85 229 90 341 95 0
d 459 1 436 40 321 50 325 60 328 70 333 80 336 85 229 90 341 95 0
d 461 1 460 0
d 462 1 460 105 0
d 463 1 258 0
d 464 1 258 110 0
d 465 1 460 105 258 110 0
d 466 1 348 0
d 467 1 348 115 0
d 468 1 351 0
d 469 1 351 120 0
d 470 1 348 115 351 120 0
d 471 1 460 105 258 110 348 115 351 120 0
d 472 1 356 0
d 473 1 356 130 0
d 474 1 359 0
d 475 1 359 135 0
d 476 1 356 130 359 135 0
d 477 1 363 0
d 478 1 363 140 0
d 479 1 366 0
d 480 1 366 145 0
d 481 1 363 140 366 145 0
d 482 1 356 130 359 135 363 140 366 145 0
d 483 1 460 105 258 110 348 115 351 120 356 130 359 135 363 140 366 145 0
d 484 1 436 40 321 50 325 60 328 70 333 80 336 85 229 90 341 95 460 105 258 110 348 115 351 120 356 130 359 135 363 140 366 145 0
d 485 2 373 40 0
d 486 2 376 50 0
d 487 2 373 40 376 50 0
d 488 2 380 60 0
d 489 2 383 70 0
d 490 2 380 60 383 70 0
d 491 2 373 40 376 50 380 60 383 70 0
d 492 2 388 80 0
d 493 2 391 85 0
d 494 2 388 80 391 85 0
d 495 2 395 90 0
d 496 2 398 95 0
d 497 2 395 90 398 95 0
d 498 2 388 80 391 85 395 90 398 95 0
d 499 2 373 40 376 50 380 60 383 70 388 80 391 85 395 90 398 95 0
d 500 2 404 105 0
d 501 2 407 110 0
d 502 2 404 105 407 110 0
d 503 2 411 115 0
d 504 2 414 120 0
d 505 2 411 115 414 120 0
d 506 2 404 105 407 110 411 115 414 120 0
d 507 2 419 130 0
d 509 2 508 0
d 510 2 508 135 0
d 511 2 419 130 508 135 0
d 512 2 425 140 0
d 513 2 428 145 0
d 514 2 425 140 428 145 0
d 515 2 419 130 508 135 425 140 428 145 0
d 516 2 404 105 407 110 411 115 414 120 419 130 508 135 425 140 428 145 0
d 517 2 373 40 376 50 380 60 383 70 388 80 391 85 395 90 398 95 404 105 407 110 411 115 414 120 419 130 508 135 425 140 428 145 0
d 518 1 436 40 321 50 325 60 328 70 333 80 336 85 229 90 341 95 460 105 258 110 348 115 351 120 356 130 359 135 363 140 366 145 2 373 376 380 383 388 391 395 398 404 407 411 414 419 508 425 428 0
d 519 436 163 180 2 184 321 193 325 203 328 212 333 217 336 223 228 234 13 7 341 238 253 257 268 272 460 348 276 351 281 356 290 359 295 363 300 366 305 373 310 376 380 383 388 391 395 315 398 404 248 407 263 411 414 419 508 425 428 1 40 50 60 70 80 85 229 90 95 105 258 110 115 120 130 135 140 145 0
d 520 1 2 6 7 12 13 18 23 24 29 30 35 40 45 50 55 60 65 70 75 80 85 90 95 100 105 110 115 120 125 130 135 140 145 150 154 158 163 167 171 175 180 184 188 193 198 203 208 212 217 223 228 229 234 238 243 248 253 257 258 263 268 272 276 281 286 290 295 300 305 310 315 436 321 325 328 333 336 341 460 348 351 356 359 363 366 373 376 380 383 388 391 395 398 404 407 411 414 419 508 425 428 0
3 2 0
-3 -2 0
4 -1 -3 0
4 1 3 0
-4 -1 3 0
-4 1 -3 0
5 4 0
-5 -4 0
8 7 0
-8 -7 0
9 -6 -8 0
9 6 8 0
-9 -6 8 0
-9 6 -8 0
10 9 0
-10 -9 0
11 -5 0
11 -10 0
-11 5 10 0
14 13 0
-14 -13 0
15 -12 -14 0
15 12 14 0
-15 -12 14 0
-15 12 -14 0
16 15 0
-16 -15 0
17 -11 0
17 -16 0
-17 11 16 0
-19 6 0
-19 12 0
19 -6 -12 0
20 -18 -19 0
20 18 19 0
-20 -18 19 0
-20 18 -19 0
21 20 0
-21 -20 0
22 -17 0
22 -21 0
-22 17 21 0
25 24 0
-25 -24 0
26 -23 -25 0
26 23 25 0
-26 -23 25 0
-26 23 -25 0
27 26 0
-27 -26 0
28 -22 0
28 -27 0
-28 22 27 0
31 30 0
-31 -30 0
32 -29 -31 0
32 29 31 0
-32 -29 31 0
-32 29 -31 0
33 32 0
-33 -32 0
34 -28 0
34 -33 0
-34 28 33 0
-36 23 0
-36 29 0
36 -23 -29 0
37 -35 -36 0
37 35 36 0
-37 -35 36 0
-37 35 -36 0
38 37 0
-38 -37 0
39 -34 0
39 -38 0
-39 34 38 0
-41 18 0
-41 35 0
41 -18 -35 0
42 -40 -41 0
42 40 41 0
-42 -40 41 0
-42 40 -41 0
43 42 0
-43 -42 0
44 -39 0
44 -43 0
-44 39 43 0
-46 7 0
-46 12 0
46 -7 -12 0
47 -45 -46 0
47 45 46 0
-47 -45 46 0
-47 45 -46 0
48 47 0
-48 -47 0
49 -44 0
49 -48 0
-49 44 48 0
-51 45 0
-51 35 0
51 -45 -35 0
52 -50 -51 0
52 50 51 0
-52 -50 51 0
-52 50 -51 0
53 52 0
-53 -52 0
54 -49 0
54 -53 0
-54 49 53 0
-56 6 0
-56 13 0
56 -6 -13 0
57 -55 -56 0
57 55 56 0
-57 -55 56 0
-57 55 -56 0
58 57 0
-58 -57 0
59 -54 0
59 -58 0
-59 54 58 0
-61 55 0
-61 35 0
61 -55 -35 0
62 -60 -61 0
62 60 61 0
-62 -60 61 0
-62 60 -61 0
63 62 0
-63 -62 0
64 -59 0
64 -63 0
-64 59 63 0
-66 7 0
-66 13 0
66 -7 -13 0
67 -65 -66 0
67 65 66 0
-67 -65 66 0
-67 65 -66 0
68 67 0
-68 -67 0
69 -64 0
69 -68 0
-69 64 68 0
-71 65 0
-71 35 0
71 -65 -35 0
72 -70 -71 0
72 70 71 0
-72 -70 71 0
-72 70 -71 0
73 72 0
-73 -72 0
74 -69 0
74 -73 0
-74 69 73 0
-76 24 0
-76 29 0
76 -24 -29 0
77 -75 -76 0
77 75 76 0
-77 -75 76 0
-77 75 -76 0
78 77 0
-78 -77 0
79 -74 0
79 -78 0
-79 74 78 0
-81 18 0
-81 75 0
81 -18 -75 0
82 -80 -81 0
82 80 81 0
-82 -80 81 0
-82 80 -81 0
83 82 0
-83 -82 0
84 -79 0
84 -83 0
-84 79 83 0
-86 45 0
-86 75 0
86 -45 -75 0
87 -85 -86 0
87 85 86 0
-87 -85 86 0
-87 85 -86 0
88 87 0
-88 -87 0
89 -84 0
89 -88 0
-89 84 88 0
-91 55 0
-91 75 0
91 -55 -75 0
92 -90 -91 0
92 90 91 0
-92 -90 91 0
-92 90 -91 0
93 92 0
-93 -92 0
94 -89 0
94 -93 0
-94 89 93 0
-96 65 0
-96 75 0
96 -65 -75 0
97 -95 -96 0
97 95 96 0
-97 -95 96 0
-97 95 -96 0
98 97 0
-98 -97 0
99 -94 0
99 -98 0
-99 94 98 0
-101 23 0
-101 30 0
101 -23 -30 0
102 -100 -101 0
102 100 101 0
-102 -100 101 0
-102 100 -101 0
103 102 0
-103 -102 0
104 -99 0
104 -103 0
-104 99 103 0
-106 18 0
-106 100 0
106 -18 -100 0
107 -105 -106 0
107 105 106 0
-107 -105 106 0
-107 105 -106 0
108 107 0
-108 -107 0
109 -104 0
109 -108 0
-109 104 108 0
-111 45 0
-111 100 0
111 -45 -100 0
112 -110 -111 0
112 110 111 0
-112 -110 111 0
-112 110 -111 0
113 112 0
-113 -112 0
114 -109 0
114 -113 0
-114 109 113 0
-116 55 0
-116 100 0
116 -55 -100 0
117 -115 -116 0
117 115 116 0
-117 -115 116 0
-117 115 -116 0
118 117 0
-118 -117 0
119 -114 0
119 -118 0
-119 114 118 0
-121 65 0
-121 100 0
121 -65 -100 0
122 -120 -121 0
122 120 121 0
-122 -120 121 0
-122 120 -121 0
123 122 0
-123 -122 0
124 -119 0
124 -123 0
-124 119 123 0
-126 24 0
-126 30 0
126 -24 -30 0
127 -125 -126 0
127 125 126 0
-127 -125 126 0
-127 125 -126 0
128 127 0
-128 -127 0
129 -124 0
129 -128 0
-129 124 128 0
-131 18 0
-131 125 0
131 -18 -125 0
132 -130 -131 0
132 130 131 0
-132 -130 131 0
-132 130 -131 0
133 132 0
-133 -132 0
134 -129 0
134 -133 0
-134 129 133 0
-136 45 0
-136 125 0
136 -45 -125 0
137 -135 -136 0
137 135 136 0
-137 -135 136 0
-137 135 -136 0
138 137 0
-138 -137 0
139 -134 0
139 -138 0
-139 134 138 0
-141 55 0
-141 125 0
141 -55 -125 0
142 -140 -141 0
142 140 141 0
-142 -140 141 0
-142 140 -141 0
143 142 0
-143 -142 0
144 -139 0
144 -143 0
-144 139 143 0
-146 65 0
-146 125 0
146 -65 -125 0
147 -145 -146 0
147 145 146 0
-147 -145 146 0
-147 145 -146 0
148 147 0
-148 -147 0
149 -144 0
149 -148 0
-149 144 148 0
151 -150 -8 0
151 150 8 0
-151 -150 8 0
-151 150 -8 0
152 151 0
-152 -151 0
153 -149 0
153 -152 0
-153 149 152 0
155 -154 -14 0
155 154 14 0
-155 -154 14 0
-155 154 -14 0
156 155 0
-156 -155 0
157 -153 0
157 -156 0
-157 153 156 0
-159 150 0
-159 154 0
159 -150 -154 0
160 -158 -159 0
160 158 159 0
-160 -158 159 0
-160 158 -159 0
161 160 0
-161 -160 0
162 -157 0
162 -161 0
-162 157 161 0
164 -163 -158 0
164 163 158 0
-164 -163 158 0
-164 163 -158 0
165 164 0
-165 -164 0
166 -162 0
166 -165 0
-166 162 165 0
168 -167 -25 0
168 167 25 0
-168 -167 25 0
-168 167 -25 0
169 168 0
-169 -168 0
170 -166 0
170 -169 0
-170 166 169 0
172 -171 -31 0
172 171 31 0
-172 -171 31 0
-172 171 -31 0
173 172 0
-173 -172 0
174 -170 0
174 -173 0
-174 170 173 0
-176 167 0
-176 171 0
176 -167 -171 0
177 -175 -176 0
177 175 176 0
-177 -175 176 0
-177 175 -176 0
178 177 0
-178 -177 0
179 -174 0
179 -178 0
-179 174 178 0
181 -180 -175 0
181 180 175 0
-181 -180 175 0
-181 180 -175 0
182 181 0
-182 -181 0
183 -179 0
183 -182 0
-183 179 182 0
185 -184 -3 0
185 184 3 0
-185 -184 3 0
-185 184 -3 0
186 185 0
-186 -185 0
187 -183 0
187 -186 0
-187 183 186 0
-189 7 0
-189 154 0
189 -7 -154 0
190 -188 -189 0
190 188 189 0
-190 -188 189 0
-190 188 -189 0
191 190 0
-191 -190 0
192 -187 0
192 -191 0
-192 187 191 0
-194 188 0
-194 175 0
194 -188 -175 0
195 -193 -194 0
195 193 194 0
-195 -193 194 0
-195 193 -194 0
196 195 0
-196 -195 0
197 -192 0
197 -196 0
-197 192 196 0
-199 150 0
-199 13 0
199 -150 -13 0
200 -198 -199 0
200 198 199 0
-200 -198 199 0
-200 198 -199 0
201 200 0
-201 -200 0
202 -197 0
202 -201 0
-202 197 201 0
-204 198 0
-204 175 0
204 -198 -175 0
205 -203 -204 0
205 203 204 0
-205 -203 204 0
-205 203 -204 0
206 205 0
-206 -205 0
207 -202 0
207 -206 0
-207 202 206 0
209 -208 -66 0
209 208 66 0
-209 -208 66 0
-209 208 -66 0
210 209 0
-210 -209 0
211 -207 0
211 -210 0
-211 207 210 0
-213 208 0
-213 175 0
213 -208 -175 0
214 -212 -213 0
214 212 213 0
-214 -212 213 0
-214 212 -213 0
215 214 0
-215 -214 0
216 -211 0
216 -215 0
-216 211 215 0
-219 158 0
-219 218 0
219 -158 -218 0
220 -217 -219 0
220 217 219 0
-220 -217 219 0
-220 217 -219 0
221 220 0
-221 -220 0
222 -216 0
222 -221 0
-222 216 221 0
-224 188 0
-224 218 0
224 -188 -218 0
225 -223 -224 0
225 223 224 0
-225 -223 224 0
-225 223 -224 0
226 225 0
-226 -225 0
227 -222 0
227 -226 0
-227 222 226 0
230 -184 0
230 -229 0
-230 184 229 0
231 -228 -230 0
231 228 230 0
-231 -228 230 0
-231 228 -230 0
232 231 0
-232 -231 0
233 -227 0
233 -232 0
-233 227 232 0
235 -234 -218 0
235 234 218 0
-235 -234 218 0
-235 234 -218 0
236 235 0
-236 -235 0
237 -233 0
237 -236 0
-237 233 236 0
-239 208 0
-239 218 0
239 -208 -218 0
240 -238 -239 0
240 238 239 0
-240 -238 239 0
-240 238 -239 0
241 240 0
-241 -240 0
242 -237 0
242 -241 0
-242 237 241 0
-244 167 0
-244 30 0
244 -167 -30 0
245 -243 -244 0
245 243 244 0
-245 -243 244 0
-245 243 -244 0
246 245 0
-246 -245 0
247 -242 0
247 -246 0
-247 242 246 0
-249 158 0
-249 243 0
249 -158 -243 0
250 -248 -249 0
250 248 249 0
-250 -248 249 0
-250 248 -249 0
251 250 0
-251 -250 0
252 -247 0
252 -251 0
-252 247 251 0
254 -253 -248 0
254 253 248 0
-254 -253 248 0
-254 253 -248 0
255 254 0
-255 -254 0
256 -252 0
256 -255 0
-256 252 255 0
-259 184 0
-259 258 0
259 -184 -258 0
260 -257 -259 0
260 257 259 0
-260 -257 259 0
-260 257 -259 0
261 260 0
-261 -260 0
262 -256 0
262 -261 0
-262 256 261 0
-264 188 0
-264 243 0
264 -188 -243 0
265 -263 -264 0
265 263 264 0
-265 -263 264 0
-265 263 -264 0
266 265 0
-266 -265 0
267 -262 0
267 -266 0
-267 262 266 0
269 -268 -263 0
269 268 263 0
-269 -268 263 0
-269 268 -263 0
270 269 0
-270 -269 0
271 -267 0
271 -270 0
-271 267 270 0
273 -272 -184 0
273 272 184 0
-273 -272 184 0
-273 272 -184 0
274 273 0
-274 -273 0
275 -271 0
275 -274 0
-275 271 274 0
-277 198 0
-277 243 0
277 -198 -243 0
278 -276 -277 0
278 276 277 0
-278 -276 277 0
-278 276 -277 0
279 278 0
-279 -278 0
280 -275 0
280 -279 0
-280 275 279 0
-282 208 0
-282 243 0
282 -208 -243 0
283 -281 -282 0
283 281 282 0
-283 -281 282 0
-283 281 -282 0
284 283 0
-284 -283 0
285 -280 0
285 -284 0
-285 280 284 0
287 -286 -126 0
287 286 126 0
-287 -286 126 0
-287 286 -126 0
288 287 0
-288 -287 0
289 -285 0
289 -288 0
-289 285 288 0
-291 158 0
-291 286 0
291 -158 -286 0
292 -290 -291 0
292 290 291 0
-292 -290 291 0
-292 290 -291 0
293 292 0
-293 -292 0
294 -289 0
294 -293 0
-294 289 293 0
-296 188 0
-296 286 0
296 -188 -286 0
297 -295 -296 0
297 295 296 0
-297 -295 296 0
-297 295 -296 0
298 297 0
-298 -297 0
299 -294 0
299 -298 0
-299 294 298 0
-301 198 0
-301 286 0
301 -198 -286 0
302 -300 -301 0
302 300 301 0
-302 -300 301 0
-302 300 -301 0
303 302 0
-303 -302 0
304 -299 0
304 -303 0
-304 299 303 0
-306 208 0
-306 286 0
306 -208 -286 0
307 -305 -306 0
307 305 306 0
-307 -305 306 0
-307 305 -306 0
308 307 0
-308 -307 0
309 -304 0
309 -308 0
-309 304 308 0
-311 158 0
-311 175 0
311 -158 -175 0
312 -310 -311 0
312 310 311 0
-312 -310 311 0
-312 310 -311 0
313 312 0
-313 -312 0
314 -309 0
314 -313 0
-314 309 313 0
-316 198 0
-316 218 0
316 -198 -218 0
317 -315 -316 0
317 315 316 0
-317 -315 316 0
-317 315 -316 0
318 317 0
-318 -317 0
319 -314 0
319 -318 0
-319 314 318 0
-322 184 0
-322 321 0
322 -184 -321 0
-323 322 0
-323 193 0
323 -322 -193 0
324 -320 0
324 -323 0
-324 320 323 0
-326 184 0
-326 325 0
326 -184 -325 0
-327 326 0
-327 203 0
327 -326 -203 0
-329 184 0
-329 328 0
329 -184 -328 0
-330 329 0
-330 212 0
330 -329 -212 0
331 -327 0
331 -330 0
-331 327 330 0
332 -324 0
332 -331 0
-332 324 331 0
-334 184 0
-334 333 0
334 -184 -333 0
-335 334 0
-335 217 0
335 -334 -217 0
-337 184 0
-337 336 0
337 -184 -336 0
-338 337 0
-338 223 0
338 -337 -223 0
339 -335 0
339 -338 0
-339 335 338 0
-342 184 0
-342 341 0
342 -184 -341 0
-343 342 0
-343 238 0
343 -342 -238 0
344 -340 0
344 -343 0
-344 340 343 0
345 -339 0
345 -344 0
-345 339 344 0
346 -332 0
346 -345 0
-346 332 345 0
-349 184 0
-349 348 0
349 -184 -348 0
-350 349 0
-350 276 0
350 -349 -276 0
-352 184 0
-352 351 0
352 -184 -351 0
-353 352 0
-353 281 0
353 -352 -281 0
354 -350 0
354 -353 0
-354 350 353 0
355 -347 0
355 -354 0
-355 347 354 0
-357 184 0
-357 356 0
357 -184 -356 0
-358 357 0
-358 290 0
358 -357 -290 0
-360 184 0
-360 359 0
360 -184 -359 0
-361 360 0
-361 295 0
361 -360 -295 0
362 -358 0
362 -361 0
-362 358 361 0
-364 184 0
-364 363 0
364 -184 -363 0
-365 364 0
-365 300 0
365 -364 -300 0
-367 184 0
-367 366 0
367 -184 -366 0
-368 367 0
-368 305 0
368 -367 -305 0
369 -365 0
369 -368 0
-369 365 368 0
370 -362 0
370 -369 0
-370 362 369 0
371 -355 0
371 -370 0
-371 355 370 0
372 -346 0
372 -371 0
-372 346 371 0
-374 2 0
-374 373 0
374 -2 -373 0
-375 374 0
-375 310 0
375 -374 -310 0
-377 2 0
-377 376 0
377 -2 -376 0
-378 377 0
-378 193 0
378 -377 -193 0
379 -375 0
379 -378 0
-379 375 378 0
-381 2 0
-381 380 0
381 -2 -380 0
-382 381 0
-382 203 0
382 -381 -203 0
-384 2 0
-384 383 0
384 -2 -383 0
-385 384 0
-385 212 0
385 -384 -212 0
386 -382 0
386 -385 0
-386 382 385 0
387 -379 0
387 -386 0
-387 379 386 0
-389 2 0
-389 388 0
389 -2 -388 0
-390 389 0
-390 217 0
390 -389 -217 0
-392 2 0
-392 391 0
392 -2 -391 0
-393 392 0
-393 223 0
393 -392 -223 0
394 -390 0
394 -393 0
-394 390 393 0
-396 2 0
-396 395 0
396 -2 -395 0
-397 396 0
-397 315 0
397 -396 -315 0
-399 2 0
-399 398 0
399 -2 -398 0
-400 399 0
-400 238 0
400 -399 -238 0
401 -397 0
401 -400 0
-401 397 400 0
402 -394 0
402 -401 0
-402 394 401 0
403 -387 0
403 -402 0
-403 387 402 0
-405 2 0
-405 404 0
405 -2 -404 0
-406 405 0
-406 248 0
406 -405 -248 0
-408 2 0
-408 407 0
408 -2 -407 0
-409 408 0
-409 263 0
409 -408 -263 0
410 -406 0
410 -409 0
-410 406 409 0
-412 2 0
-412 411 0
412 -2 -411 0
-413 412 0
-413 276 0
413 -412 -276 0
-415 2 0
-415 414 0
415 -2 -414 0
-416 415 0
-416 281 0
416 -415 -281 0
417 -413 0
417 -416 0
-417 413 416 0
418 -410 0
418 -417 0
-418 410 417 0
-420 2 0
-420 419 0
420 -2 -419 0
-421 420 0
-421 290 0
421 -420 -290 0
-423 422 0
-423 295 0
423 -422 -295 0
424 -421 0
424 -423 0
-424 421 423 0
-426 2 0
-426 425 0
426 -2 -425 0
-427 426 0
-427 300 0
427 -426 -300 0
-429 2 0
-429 428 0
429 -2 -428 0
-430 429 0
-430 305 0
430 -429 -305 0
431 -427 0
431 -430 0
-431 427 430 0
432 -424 0
432 -431 0
-432 424 431 0
433 -418 0
433 -432 0
-433 418 432 0
434 -403 0
434 -433 0
-434 403 433 0
435 -372 0
435 -434 0
-435 372 434 0
-437 1 0
-437 436 0
437 -1 -436 0
-438 437 0
-438 40 0
438 -437 -40 0
-439 1 0
-439 321 0
439 -1 -321 0
-440 439 0
-440 50 0
440 -439 -50 0
441 -438 0
441 -440 0
-441 438 440 0
-442 1 0
-442 325 0
442 -1 -325 0
-443 442 0
-443 60 0
443 -442 -60 0
-444 1 0
-444 328 0
444 -1 -328 0
-445 444 0
-445 70 0
445 -444 -70 0
446 -443 0
446 -445 0
-446 443 445 0
447 -441 0
447 -446 0
-447 441 446 0
-448 1 0
-448 333 0
448 -1 -333 0
-449 448 0
-449 80 0
449 -448 -80 0
-450 1 0
-450 336 0
450 -1 -336 0
-451 450 0
-451 85 0
451 -450 -85 0
452 -449 0
452 -451 0
-452 449 451 0
-453 1 0
-453 229 0
453 -1 -229 0
-454 453 0
-454 90 0
454 -453 -90 0
-455 1 0
-455 341 0
455 -1 -341 0
-456 455 0
-456 95 0
456 -455 -95 0
457 -454 0
457 -456 0
-457 454 456 0
458 -452 0
458 -457 0
-458 452 457 0
459 -447 0
459 -458 0
-459 447 458 0
-461 1 0
-461 460 0
461 -1 -460 0
-462 461 0
-462 105 0
462 -461 -105 0
-463 1 0
-463 258 0
463 -1 -258 0
-464 463 0
-464 110 0
464 -463 -110 0
465 -462 0
465 -464 0
-465 462 464 0
-466 1 0
-466 348 0
466 -1 -348 0
-467 466 0
-467 115 0
467 -466 -115 0
-468 1 0
-468 351 0
468 -1 -351 0
-469 468 0
-469 120 0
469 -468 -120 0
470 -467 0
470 -469 0
-470 467 469 0
471 -465 0
471 -470 0
-471 465 470 0
-472 1 0
-472 356 0
472 -1 -356 0
-473 472 0
-473 130 0
473 -472 -130 0
-474 1 0
-474 359 0
474 -1 -359 0
-475 474 0
-475 135 0
475 -474 -135 0
476 -473 0
476 -475 0
-476 473 475 0
-477 1 0
-477 363 0
477 -1 -363 0
-478 477 0
-478 140 0
478 -477 -140 0
-479 1 0
-479 366 0
479 -1 -366 0
-480 479 0
-480 145 0
480 -479 -145 0
481 -478 0
481 -480 0
-481 478 480 0
482 -476 0
482 -481 0
-482 476 481 0
483 -471 0
483 -482 0
-483 471 482 0
484 -459 0
484 -483 0
-484 459 483 0
-485 374 0
-485 40 0
485 -374 -40 0
-486 377 0
-486 50 0
486 -377 -50 0
487 -485 0
487 -486 0
-487 485 486 0
-488 381 0
-488 60 0
488 -381 -60 0
-489 384 0
-489 70 0
489 -384 -70 0
490 -488 0
490 -489 0
-490 488 489 0
491 -487 0
491 -490 0
-491 487 490 0
-492 389 0
-492 80 0
492 -389 -80 0
-493 392 0
-493 85 0
493 -392 -85 0
494 -492 0
494 -493 0
-494 492 493 0
-495 396 0
-495 90 0
495 -396 -90 0
-496 399 0
-496 95 0
496 -399 -95 0
497 -495 0
497 -496 0
-497 495 496 0
498 -494 0
498 -497 0
-498 494 497 0
499 -491 0
499 -498 0
-499 491 498 0
-500 405 0
-500 105 0
500 -405 -105 0
-501 408 0
-501 110 0
501 -408 -110 0
502 -500 0
502 -501 0
-502 500 501 0
-503 412 0
-503 115 0
503 -412 -115 0
-504 415 0
-504 120 0
504 -415 -120 0
505 -503 0
505 -504 0
-505 503 504 0
506 -502 0
506 -505 0
-506 502 505 0
-507 420 0
-507 130 0
507 -420 -130 0
-509 2 0
-509 508 0
509 -2 -508 0
-510 509 0
-510 135 0
510 -509 -135 0
511 -507 0
511 -510 0
-511 507 510 0
-512 426 0
-512 140 0
512 -426 -140 0
-513 429 0
-513 145 0
513 -429 -145 0
514 -512 0
514 -513 0
-514 512 513 0
515 -511 0
515 -514 0
-515 511 514 0
516 -506 0
516 -515 0
-516 506 515 0
517 -499 0
517 -516 0
-517 499 516 0
518 -484 0
518 -517 0
-518 484 517 0
519 -435 -518 0
519 435 518 0
-519 -435 518 0
-519 435 -518 0
520 -319 0
520 -519 0
-520 319 519 0
520 0
